; benchmark generated from python API
(set-info :status unknown)
(declare-fun x_month () Int)
(declare-fun x_day () Int)
(declare-fun x_year () Int)
(declare-fun y_month () Int)
(declare-fun y_day () Int)
(declare-fun y_year () Int)
(assert
 (>= x_month 1))
(assert
 (<= x_month 12))
(assert
 (>= x_day 1))
(assert
 (<= x_day 31))
(assert
 (let (($x798 (<= x_day 28)))
 (let (($x978 (<= x_day 29)))
 (let (($x734 (= (mod x_year 400) 0)))
 (let (($x393 (= (mod x_year 4) 0)))
 (let (($x862 (ite (or (and $x393 (and (distinct (mod x_year 100) 0) true)) $x734) $x978 $x798)))
 (let (($x911 (= x_month 2)))
 (ite $x911 $x862 true))))))))
(assert
 (let (($x755 (<= x_day 30)))
 (let (($x806 (or (= x_month 4) (= x_month 6) (= x_month 9) (= x_month 11))))
 (ite $x806 $x755 true))))
(assert
 (>= y_month 1))
(assert
 (<= y_month 12))
(assert
 (>= y_day 1))
(assert
 (<= y_day 31))
(assert
 (let (($x815 (<= y_day 28)))
 (let (($x732 (<= y_day 29)))
 (let (($x921 (= (mod y_year 400) 0)))
 (let (($x542 (= (mod y_year 4) 0)))
 (let (($x891 (ite (or (and $x542 (and (distinct (mod y_year 100) 0) true)) $x921) $x732 $x815)))
 (let (($x920 (= y_month 2)))
 (ite $x920 $x891 true))))))))
(assert
 (let (($x338 (<= y_day 30)))
 (let (($x957 (or (= y_month 4) (= y_month 6) (= y_month 9) (= y_month 11))))
 (ite $x957 $x338 true))))
(assert
 (let (($x251 (= x_day 29)))
 (let (($x911 (= x_month 2)))
 (let (($x388 (= x_year 2020)))
 (and $x388 $x911 $x251)))))
(assert
 (let ((?x804 (+ (mod (- (+ x_month (+ (* 1 12) 0)) 1) 12) 1)))
 (let ((?x740 (ite (or (= ?x804 4) (= ?x804 6) (= ?x804 9) (= ?x804 11)) 30 31)))
 (let ((?x504 (+ 0 (div (- (+ x_month (+ (* 1 12) 0)) 1) 12))))
 (let ((?x767 (+ x_year ?x504)))
 (let (($x801 (or (and (= (mod ?x767 4) 0) (and (distinct (mod ?x767 100) 0) true)) (= (mod ?x767 400) 0))))
 (let ((?x487 (ite (= ?x804 2) (ite $x801 29 28) ?x740)))
 (let ((?x610 (ite (< x_day 1) 1 (ite (> x_day ?x487) ?x487 x_day))))
 (let ((?x753 (ite (< ?x610 1) 1 (ite (> ?x610 ?x487) ?x487 ?x610))))
 (let ((?x628 (ite (= 2 ?x804) (ite $x801 31 31) (ite (= 1 ?x804) (ite $x801 0 0) 0))))
 (let ((?x664 (ite (= 4 ?x804) (ite $x801 91 90) (ite (= 3 ?x804) (ite $x801 60 59) ?x628))))
 (let ((?x637 (ite (= 6 ?x804) (ite $x801 152 151) (ite (= 5 ?x804) (ite $x801 121 120) ?x664))))
 (let ((?x667 (ite (= 8 ?x804) (ite $x801 213 212) (ite (= 7 ?x804) (ite $x801 182 181) ?x637))))
 (let ((?x366 (ite (= 10 ?x804) (ite $x801 274 273) (ite (= 9 ?x804) (ite $x801 244 243) ?x667))))
 (let ((?x427 (ite (= 12 ?x804) (ite $x801 335 334) (ite (= 11 ?x804) (ite $x801 305 304) ?x366))))
 (let ((?x879 (- (+ (* 365 (- ?x767 1)) (div (- ?x767 1) 4)) (div (- ?x767 1) 100))))
 (let ((?x575 (- (+ (+ (+ ?x879 (div (- ?x767 1) 400)) ?x427) (- ?x753 1)) 730179)))
 (let ((?x912 (+ (+ ?x575 0) 730179)))
 (let ((?x515 (mod ?x912 146097)))
 (let ((?x546 (div ?x515 36524)))
 (let ((?x510 (ite (<= 4 ?x546) 3 ?x546)))
 (let ((?x521 (- ?x515 (* ?x510 36524))))
 (let ((?x422 (mod ?x521 1461)))
 (let ((?x658 (div ?x422 365)))
 (let ((?x678 (ite (<= 4 ?x658) 3 ?x658)))
 (let ((?x754 (+ (+ (* (div ?x912 146097) 400) (* ?x510 100)) (* (div ?x521 1461) 4))))
 (let ((?x455 (+ (+ ?x754 ?x678) 1)))
 (let (($x694 (or (and (= (mod ?x455 4) 0) (and (distinct (mod ?x455 100) 0) true)) (= (mod ?x455 400) 0))))
 (let ((?x503 (- ?x422 (* ?x678 365))))
 (let ((?x671 (ite $x694 31 31)))
 (let (($x874 (>= ?x503 ?x671)))
 (let ((?x876 (ite $x874 (+ (- ?x503 ?x671) 1) (+ (- ?x503 (ite $x694 0 0)) 1))))
 (let ((?x674 (ite $x694 60 59)))
 (let (($x907 (>= ?x503 ?x674)))
 (let ((?x242 (ite $x694 91 90)))
 (let (($x210 (>= ?x503 ?x242)))
 (let ((?x417 (ite $x210 (+ (- ?x503 ?x242) 1) (ite $x907 (+ (- ?x503 ?x674) 1) ?x876))))
 (let ((?x432 (ite $x694 121 120)))
 (let (($x517 (>= ?x503 ?x432)))
 (let ((?x426 (ite $x694 152 151)))
 (let (($x690 (>= ?x503 ?x426)))
 (let ((?x254 (ite $x690 (+ (- ?x503 ?x426) 1) (ite $x517 (+ (- ?x503 ?x432) 1) ?x417))))
 (let ((?x886 (ite $x694 182 181)))
 (let (($x520 (>= ?x503 ?x886)))
 (let ((?x714 (ite $x694 213 212)))
 (let (($x252 (>= ?x503 ?x714)))
 (let ((?x320 (ite $x252 (+ (- ?x503 ?x714) 1) (ite $x520 (+ (- ?x503 ?x886) 1) ?x254))))
 (let ((?x607 (ite $x694 244 243)))
 (let (($x854 (>= ?x503 ?x607)))
 (let ((?x589 (ite $x694 274 273)))
 (let (($x838 (>= ?x503 ?x589)))
 (let ((?x233 (ite $x838 (+ (- ?x503 ?x589) 1) (ite $x854 (+ (- ?x503 ?x607) 1) ?x320))))
 (let ((?x966 (ite $x694 305 304)))
 (let (($x249 (>= ?x503 ?x966)))
 (let ((?x930 (ite $x694 335 334)))
 (let (($x348 (>= ?x503 ?x930)))
 (let ((?x699 (ite $x348 (+ (- ?x503 ?x930) 1) (ite $x249 (+ (- ?x503 ?x966) 1) ?x233))))
 (let (($x952 (= 0 0)))
 (let ((?x299 (ite $x517 5 (ite $x210 4 (ite $x907 3 (ite $x874 2 1))))))
 (let ((?x887 (ite $x854 9 (ite $x252 8 (ite $x520 7 (ite $x690 6 ?x299))))))
 (let (($x413 (= y_month (ite $x952 ?x804 (ite $x348 12 (ite $x249 11 (ite $x838 10 ?x887)))))))
 (and (= y_year (ite $x952 ?x767 ?x455)) $x413 (= y_day (ite $x952 ?x753 ?x699))))))))))))))))))))))))))))))))))))))))))))))))))))))))))))))))
(assert
 (not (and (= y_year 2021) (= y_month 2) (= y_day 28))))
(check-sat)
